10	9	5						
0	1	J1
1	2	J1
2	3	J1
3	6	J1
4	5	J1
5	6	J1
6	7	J1
7	8	J1
8	9	J1
4	0	84	2	84
3	3	66	0	77		
3	4	13	0	35	3	23		
2	1	2	3	4				
3	2	98	3	98		
4	2	24
4	4	35	1	40
2	4	1	1	1				
3	0	79	3	86		
4	3	8	0	23